Sat 19 May 19:14:11 CEST 2018
CPXPARAM_TimeLimit                               45
CPXPARAM_Threads                                 1
CPXPARAM_MIP_Strategy_CallbackReducedLP          0
Tried aggregator 3 times.
MIP Presolve eliminated 2660 rows and 2471 columns.
MIP Presolve modified 4392 coefficients.
Aggregator did 8394 substitutions.
Reduced MIP has 12630 rows, 10002 columns, and 28818 nonzeros.
Reduced MIP has 8838 binaries, 12 generals, 0 SOSs, and 1396 indicators.
Presolve time = 0.11 sec. (241.79 ticks)
Probing time = 0.14 sec. (115.45 ticks)
Tried aggregator 3 times.
Aggregator did 5716 substitutions.
Reduced MIP has 6914 rows, 4286 columns, and 17386 nonzeros.
Reduced MIP has 3122 binaries, 1164 generals, 0 SOSs, and 1396 indicators.
Presolve time = 0.03 sec. (35.31 ticks)
Probing time = 0.11 sec. (92.66 ticks)
Tried aggregator 1 time.
Reduced MIP has 6914 rows, 4286 columns, and 17386 nonzeros.
Reduced MIP has 3122 binaries, 1164 generals, 0 SOSs, and 1396 indicators.
Presolve time = 0.01 sec. (15.77 ticks)
Probing time = 0.01 sec. (4.68 ticks)
Clique table members: 77745.
MIP emphasis: balance optimality and feasibility.
MIP search method: dynamic search.
Parallel mode: none, using 1 thread.
Root relaxation solution time = 0.03 sec. (36.92 ticks)

        Nodes                                         Cuts/
   Node  Left     Objective  IInf  Best Integer    Best Bound    ItCnt     Gap

      0     0        0.0000  2158                      0.0000      656         
      0     0        0.0000  2037               Cliques: 1828     1005         
      0     0        0.0000  1723               Cliques: 1828     1262         
      0     0        0.0000  1377               Cliques: 1828     1560         
      0     0        0.0000  1216               Cliques: 1828     1764         
      0     0        0.0000  1220                   Cuts: 603     2144         
      0     0        0.0000   307                Impl Bds: 29     2157         
      0     0        0.0000   644                   Cuts: 283     2374         
      0     2        0.0000   644                      0.0000     2374         
Elapsed time = 13.26 sec. (15521.29 ticks, tree = 0.01 MB, solutions = 0)
     20    22        0.0000   625                      0.0000     2467         
     50    52        9.0000   632                      0.0000     2639         
    100   102       19.0000   613                      0.0000     2900         
    144   146        0.0000   786                      0.0000     3462         
    177   179       25.0000   586                      1.0000     5854         
    178   180       25.0000   759                      1.0000     7679         
    190   192       25.0000   109                      1.0000     8152         
    200   202       25.0000    97                      1.0000     8739         
    201   203       25.0000    18                      1.0000     8798         
    216   218       25.0000     1                      1.0000    10913         
Elapsed time = 17.53 sec. (20204.47 ticks, tree = 0.68 MB, solutions = 0)
*   217   176      integral     0       25.0000        1.0000    10915   96.00%
    219   176        1.0000  1243       25.0000        1.0000    15019   96.00%
    240   197       22.0000   421       25.0000        1.0000    17454   96.00%
    266   223       22.0000    94       25.0000        1.0000    19852   96.00%
    310   267       22.0000    36       25.0000        1.0000    21562   96.00%
*   320+  175                           22.0000        1.0000            95.45%
    330   182       21.0000   501       22.0000        1.0000    24107   95.45%
    408   260       21.0000    96       22.0000        1.0000    27625   95.45%
    430   278       14.0000    51       22.0000        1.0000    29694   95.45%
*   480+  220                           20.0000        1.0000            95.00%
*   490+  219                           19.0000        1.0000            94.74%
    522   253       18.0000    13       19.0000        1.0000    33487   94.74%
*   530+  204                           18.0000        1.0000            94.44%
    539   206       17.0000   660       18.0000        1.0000    36198   94.44%
    550   217       17.0000   315       18.0000        1.0000    38613   94.44%
Elapsed time = 28.73 sec. (30729.47 ticks, tree = 0.71 MB, solutions = 5)
*   610+  193                           17.0000        1.0000            94.12%
    616   198        1.0000  1106       17.0000        1.0000    42697   94.12%
    678   260       14.0000    44       17.0000        1.0000    47041   94.12%
    720   298        0.0000   522       17.0000        1.0000    49720   94.12%
*   730+  202                           16.0000        1.0000            93.75%
    734   206        0.0000    77       16.0000        1.0000    51719   93.75%
*   740+  142                           15.0000        1.0000            93.33%
    747   149       12.0000    51       15.0000        1.0000    53912   93.33%
*   750+  107                           14.0000        1.0000            92.86%
*   760+   85                           13.0000        1.0000            92.31%
    769    79        6.0000   148       13.0000        1.0000    56070   92.31%
*   780+   58                           12.0000        1.0000            91.67%
    787    61       11.0000   189       12.0000        1.0000    57576   91.67%
*   800+   40                           11.0000        1.0000            90.91%
    813    40        0.0000   355       11.0000        1.0000    60488   90.91%
    827    47        0.0000   310       11.0000        1.0000    62258   90.91%
    840    56        0.0000   426       11.0000        1.0000    65281   90.91%
Elapsed time = 43.62 sec. (49618.91 ticks, tree = 0.33 MB, solutions = 12)
    863    79        0.0000   310       11.0000        1.0000    67282   90.91%

GUB cover cuts applied:  2
Clique cuts applied:  180
Cover cuts applied:  1
Implied bound cuts applied:  16
Mixed integer rounding cuts applied:  2
Zero-half cuts applied:  3

Root node processing (before b&c):
  Real time             =   13.24 sec. (15505.03 ticks)
Sequential b&c:
  Real time             =   31.77 sec. (36344.00 ticks)
                          ------------
Total (root+branch&cut) =   45.01 sec. (51849.03 ticks)
   | W
 L |  0  1 2 3 
--------------
 0 |  .  . 5 6 
 1 |  .  3 5 6 
 2 |  8  8 9 9 
 3 |  8  8 9 9 
 4 |  8  8 9 9 
 5 | 10 10 4 7 
 6 | 10 10 4 7 
 7 | 10 10 2 2 
 8 | 11 11 2 2 
 9 | 11 11 1 1 
10 | 11 11 1 1 
11 |  .  . . . 
12 |  .  . . . 
13 |  .  . . . 
14 |  .  . . . 
15 |  .  . . . 
16 |  .  . . . 
17 |  .  . . . 
18 |  .  . . . 
19 |  .  . . . 
20 |  .  . . . 
21 |  .  . . . 
22 |  .  . . . 
23 |  .  . . . 
24 |  .  . . . 

Boxes' corners:       (w,l)
    Box  1 is at 
        top left     (2,9)
        bottom right (3,10)

    Box  2 is at 
        top left     (2,7)
        bottom right (3,8)

    Box  3 is at 
        top left     (1,1)
        bottom right (1,1)

    Box  4 is at 
        top left     (2,5)
        bottom right (2,6)

    Box  5 is at 
        top left     (2,0)
        bottom right (2,1)

    Box  6 is at 
        top left     (3,0)
        bottom right (3,1)

    Box  7 is at 
        top left     (3,5)
        bottom right (3,6)

    Box  8 is at 
        top left     (0,2)
        bottom right (1,4)

    Box  9 is at 
        top left     (2,2)
        bottom right (3,4)

    Box 10 is at 
        top left     (0,5)
        bottom right (1,7)

    Box 11 is at 
        top left     (0,8)
        bottom right (1,10)

    Roll length used: 11
In 45.1 seconds
